542 5
10 10 10 10 10 

0 0 0 0 0 0 4 2 54 106 158 
0 0 0 0 0 0 4 3 4 5 6 
5 4 1 1 1 1 4 14 9 8 7 
6 3 7 1 5 5 4 14 9 8 7 
7 5 6 6 4 4 3 10 9 8 
8 1 5 3 6 5 2 10 8 
1 3 4 7 7 5 3 12 11 10 
6 8 1 4 7 8 3 16 12 11 
8 7 7 3 6 3 2 16 11 
2 7 5 7 7 3 3 17 16 15 
10 5 2 4 7 2 1 13 
2 8 3 2 8 9 1 13 
1 8 8 4 4 7 3 22 17 15 
7 4 4 10 5 4 3 19 18 16 
10 3 2 6 4 7 2 19 18 
9 5 4 5 5 6 2 22 20 
9 8 9 10 4 6 1 18 
4 6 4 7 8 3 1 20 
10 4 7 4 5 4 1 20 
7 6 5 8 4 3 3 29 26 21 
7 2 7 5 5 2 3 25 24 23 
9 5 5 6 4 3 3 29 24 23 
9 7 6 5 7 6 1 27 
2 5 3 4 2 4 1 27 
10 6 3 6 3 6 1 27 
2 1 8 7 5 8 1 27 
4 8 3 4 3 2 1 28 
7 7 4 6 4 5 1 30 
1 5 4 7 6 4 1 30 
1 3 6 3 5 6 2 33 31 
4 5 5 3 5 4 2 36 32 
4 5 3 5 6 6 2 35 34 
4 4 5 6 8 5 1 34 
1 3 7 6 3 2 2 38 37 
10 6 4 5 6 9 1 37 
4 2 4 5 4 6 1 37 
2 1 3 7 7 2 3 43 40 39 
8 10 4 7 2 10 3 43 40 39 
8 4 5 3 6 5 1 41 
8 2 4 7 6 5 1 41 
10 3 4 3 3 6 1 42 
4 8 7 2 8 4 1 44 
8 3 8 3 6 7 1 44 
3 8 8 5 5 7 1 45 
7 6 6 8 7 5 2 48 46 
9 6 7 2 6 5 1 47 
6 5 7 8 4 4 2 50 49 
7 5 2 2 3 5 1 49 
8 7 8 5 4 7 2 52 51 
6 5 5 5 2 2 2 52 51 
9 6 7 5 3 6 1 53 
6 2 4 3 5 7 1 53 
0 0 0 0 0 0 1 542 
0 0 0 0 0 0 4 55 56 57 59 
2 1 1 1 5 3 5 67 65 64 63 60 
5 5 3 4 4 2 2 63 58 
3 4 3 6 5 7 1 58 
4 6 9 4 8 5 3 70 67 61 
1 7 4 3 3 6 3 70 67 61 
3 4 3 5 4 4 1 61 
1 4 7 5 7 3 1 62 
2 2 4 5 6 6 4 74 72 71 66 
3 8 5 7 3 8 3 71 70 66 
9 6 7 7 3 4 3 72 70 68 
8 6 5 6 7 7 2 70 68 
5 7 5 6 5 5 1 68 
2 8 5 6 5 4 1 68 
6 9 7 4 8 3 1 69 
9 3 5 4 5 7 4 81 79 77 73 
6 6 3 6 5 3 3 79 74 73 
5 3 7 9 6 2 4 81 77 76 75 
1 5 2 6 5 8 1 73 
6 3 5 6 5 6 2 76 75 
1 6 4 2 4 2 1 77 
1 6 5 3 5 2 1 78 
10 2 3 5 1 2 1 78 
7 7 4 5 5 2 1 78 
9 5 7 1 5 10 1 80 
6 4 7 3 3 2 1 80 
6 3 4 4 3 5 1 82 
3 5 7 4 10 5 1 82 
2 6 5 3 4 3 3 87 85 83 
3 4 2 3 6 5 1 84 
4 4 3 6 7 3 2 91 86 
9 1 6 5 3 2 1 86 
10 2 2 8 4 7 3 93 89 88 
7 3 6 8 7 6 2 93 88 
7 5 3 7 3 5 2 95 90 
5 6 7 4 4 8 2 95 90 
10 4 4 4 8 3 1 92 
10 3 7 10 5 5 1 93 
6 6 7 6 7 3 1 94 
3 4 5 6 6 6 1 94 
1 5 6 2 4 7 1 96 
8 8 9 5 6 5 1 96 
8 7 2 2 4 4 1 97 
6 5 5 8 7 5 2 100 98 
10 6 5 6 4 4 2 101 99 
5 6 4 6 5 7 2 104 102 
9 6 7 5 4 8 2 104 102 
6 4 7 8 4 8 2 104 103 
10 7 4 4 5 8 1 103 
8 7 8 5 4 8 1 105 
5 6 5 2 4 7 1 105 
0 0 0 0 0 0 1 542 
0 0 0 0 0 0 4 107 108 109 110 
7 2 1 5 1 1 5 118 114 113 112 111 
1 6 5 6 6 7 4 118 113 112 111 
4 10 6 4 4 3 2 114 111 
7 8 3 4 5 6 3 117 115 114 
9 4 6 4 5 8 3 119 117 115 
8 4 5 5 5 7 2 119 116 
1 7 6 2 7 4 1 115 
3 3 1 3 4 3 4 124 123 120 119 
8 5 5 6 4 7 1 116 
7 5 5 7 8 6 4 126 124 123 120 
6 5 3 5 9 5 4 126 124 123 121 
5 6 6 5 8 5 3 123 121 119 
4 4 4 7 4 6 2 126 122 
1 4 3 5 5 6 1 121 
3 5 7 3 5 6 1 122 
9 2 4 5 3 5 3 133 131 125 
7 7 5 10 7 6 3 133 131 125 
3 3 9 7 4 6 3 133 131 125 
4 5 4 1 7 8 3 129 128 127 
2 1 5 5 3 5 2 128 127 
7 6 6 7 5 1 1 130 
2 7 2 4 3 2 1 130 
1 6 4 2 4 3 1 130 
7 6 8 5 4 7 1 132 
8 5 8 7 3 6 1 132 
2 6 3 10 6 8 1 134 
2 7 3 4 2 2 1 134 
3 6 6 2 5 2 3 139 137 135 
6 7 1 5 6 5 1 136 
6 6 6 3 5 4 2 142 138 
9 6 3 7 6 4 1 138 
1 4 8 4 9 5 2 141 140 
7 8 6 4 4 5 1 140 
8 6 3 4 2 7 3 147 144 143 
7 5 7 8 5 4 3 147 144 143 
9 5 4 3 7 5 1 143 
8 4 6 5 5 7 1 145 
2 6 7 5 5 3 1 145 
5 4 7 5 7 5 1 146 
3 6 5 4 7 3 1 148 
8 2 4 5 4 4 1 148 
4 5 8 6 7 5 1 149 
8 4 7 8 5 3 2 152 150 
5 3 5 2 5 4 2 153 151 
6 7 6 3 4 2 2 156 154 
9 2 6 3 1 9 2 156 154 
1 7 7 7 3 7 2 156 155 
7 4 3 7 2 5 1 155 
7 2 4 2 6 8 1 157 
3 2 4 10 9 5 1 157 
0 0 0 0 0 0 1 542 
0 0 0 0 0 0 4 159 161 162 168 
10 0 0 2 0 0 1 160 
3 0 0 6 0 0 2 166 163 
10 0 0 5 0 0 1 163 
5 0 0 10 0 0 2 167 166 
4 0 0 5 0 0 1 164 
3 0 0 4 0 0 1 165 
4 0 0 3 0 0 1 169 
2 0 0 3 0 0 1 169 
6 0 0 7 0 0 1 169 
10 0 0 5 0 0 1 169 
0 0 0 0 0 0 4 170 212 224 266 
0 0 0 0 0 0 2 171 174 
7 1 2 0 1 1 1 172 
9 5 2 0 3 4 2 175 173 
7 3 2 0 3 6 4 188 183 180 176 
1 5 4 0 3 5 3 188 180 177 
8 4 8 0 3 2 4 196 188 182 178 
9 3 10 0 7 6 1 177 
5 7 2 0 8 9 2 182 178 
8 5 7 0 4 3 2 191 179 
6 4 5 0 7 5 1 181 
9 7 6 0 9 7 1 182 
4 3 4 0 6 1 4 195 193 187 184 
1 5 7 0 3 6 4 195 193 187 184 
1 3 5 0 6 4 5 201 195 193 187 185 
8 4 5 0 4 6 2 201 185 
8 2 3 0 7 6 1 186 
4 10 4 0 4 2 4 210 205 198 189 
7 6 6 0 7 8 2 198 189 
9 3 2 0 4 6 3 205 195 194 
9 7 3 0 5 2 2 209 190 
1 6 6 0 8 5 2 203 192 
9 5 6 0 4 7 2 202 195 
5 6 3 0 3 4 1 194 
1 5 4 0 6 5 1 194 
2 6 4 0 7 8 1 197 
4 4 3 0 4 7 3 208 203 200 
9 5 8 0 4 5 3 208 203 200 
2 3 6 0 5 3 2 207 199 
7 4 3 0 5 5 2 203 200 
8 6 5 0 4 6 2 208 202 
1 5 8 0 4 5 2 207 204 
4 8 5 0 3 7 1 202 
1 4 7 0 5 3 1 204 
9 4 8 0 6 2 1 204 
9 9 4 0 6 8 1 206 
2 7 8 0 7 1 1 207 
6 4 4 0 6 8 1 211 
1 4 7 0 1 7 1 211 
2 5 5 0 5 2 1 211 
2 7 7 0 3 6 1 211 
6 6 2 0 10 7 1 211 
0 0 0 0 0 0 1 542 
0 0 0 0 0 0 4 213 216 217 222 
3 2 0 0 0 0 2 221 214 
6 2 0 0 0 0 1 215 
8 4 0 0 0 0 2 220 218 
4 5 0 0 0 0 2 221 220 
7 6 0 0 0 0 1 218 
8 5 0 0 0 0 1 219 
6 6 0 0 0 0 1 223 
6 5 0 0 0 0 1 223 
3 10 0 0 0 0 1 223 
6 5 0 0 0 0 1 223 
0 0 0 0 0 0 4 308 320 352 384 
0 0 0 0 0 0 2 225 229 
5 2 1 1 3 0 1 226 
1 5 6 4 5 0 2 228 227 
1 9 4 7 6 0 3 235 233 230 
3 6 5 7 8 0 2 245 231 
9 10 3 4 6 0 2 233 231 
5 3 7 6 9 0 1 231 
3 2 8 8 3 0 3 238 237 232 
3 7 8 5 6 0 2 247 234 
5 5 6 4 4 0 2 247 237 
4 6 8 7 2 0 1 236 
7 9 9 4 4 0 1 236 
1 4 3 3 5 0 3 250 246 239 
6 3 2 5 2 0 3 250 246 239 
6 5 4 5 4 0 4 254 250 242 241 
7 1 8 2 4 0 3 254 242 240 
8 5 4 3 8 0 1 241 
6 4 4 2 2 0 4 264 259 252 243 
2 4 4 7 2 0 3 259 252 243 
7 5 5 6 8 0 1 244 
7 5 2 2 8 0 3 263 257 248 
7 10 6 9 5 0 3 253 252 250 
4 2 5 5 6 0 2 264 249 
3 3 6 5 4 0 2 256 250 
3 5 4 3 10 0 1 249 
4 5 6 6 2 0 1 251 
10 3 5 8 9 0 3 262 257 255 
5 6 8 3 2 0 2 261 253 
9 5 4 5 3 0 2 257 255 
10 1 8 3 3 0 2 262 256 
5 8 3 5 3 0 2 262 256 
9 8 5 7 5 0 2 261 258 
10 6 3 4 8 0 1 258 
5 4 2 6 7 0 1 258 
7 5 5 6 5 0 1 260 
10 4 6 8 3 0 1 261 
7 6 5 5 5 0 1 265 
3 3 6 4 10 0 1 265 
5 6 7 4 4 0 1 265 
2 6 3 4 2 0 1 265 
3 4 2 8 5 0 1 265 
0 0 0 0 0 0 1 542 
0 0 0 0 0 0 2 267 271 
5 0 3 1 1 1 1 268 
3 0 6 8 8 7 2 270 269 
2 0 7 5 5 7 4 286 277 275 273 
9 0 3 9 3 5 3 277 275 272 
9 0 4 4 5 5 3 277 275 273 
8 0 5 4 7 3 1 273 
1 0 3 5 7 5 3 280 279 274 
6 0 6 4 6 4 2 289 276 
10 0 4 4 4 8 2 289 279 
7 0 4 4 5 5 1 278 
2 0 10 4 7 4 1 278 
5 0 5 3 3 10 3 291 288 281 
4 0 10 3 2 7 3 291 288 281 
5 0 6 6 2 6 4 291 288 284 282 
3 0 7 4 9 5 2 284 282 
6 0 4 9 3 4 2 292 283 
8 0 5 6 4 8 3 306 294 285 
6 0 2 3 7 3 2 294 285 
10 0 6 6 8 5 2 296 287 
1 0 2 3 7 3 3 305 295 289 
6 0 2 6 4 4 3 299 298 290 
10 0 2 8 3 5 3 306 298 290 
6 0 8 5 9 6 1 291 
1 0 7 5 8 8 2 305 293 
7 0 7 3 5 4 2 297 294 
6 0 3 6 4 6 2 298 295 
6 0 5 9 3 2 1 295 
8 0 3 3 4 7 3 304 299 298 
8 0 4 3 5 3 2 303 297 
3 0 4 3 6 1 3 304 303 301 
7 0 7 5 3 6 2 304 300 
9 0 9 2 3 5 2 303 301 
8 0 3 5 6 4 2 303 301 
10 0 6 7 1 3 1 301 
4 0 3 4 7 3 1 302 
8 0 4 9 4 5 1 307 
2 0 5 4 3 6 1 307 
10 0 6 5 8 5 1 307 
10 0 6 5 7 7 1 307 
7 0 4 8 4 5 1 307 
0 0 0 0 0 0 1 542 
0 0 0 0 0 0 4 309 312 314 318 
9 0 0 0 1 0 1 310 
5 0 0 0 4 0 2 317 311 
7 0 0 0 7 0 2 316 313 
6 0 0 0 6 0 2 316 315 
8 0 0 0 4 0 1 315 
8 0 0 0 7 0 1 317 
8 0 0 0 3 0 1 319 
6 0 0 0 9 0 1 319 
9 0 0 0 5 0 1 319 
8 0 0 0 4 0 1 319 
0 0 0 0 0 0 4 416 428 450 472 
0 0 0 0 0 0 3 321 322 324 
3 0 2 1 0 1 2 329 323 
2 0 4 6 0 4 2 329 323 
2 0 4 5 0 3 2 328 325 
7 0 3 6 0 4 3 333 329 328 
3 0 9 6 0 8 2 330 326 
7 0 2 9 0 5 1 327 
2 0 7 9 0 4 3 337 333 331 
4 0 4 7 0 9 1 330 
4 0 2 8 0 10 1 330 
10 0 4 3 0 4 2 337 331 
3 0 10 2 0 3 1 332 
1 0 8 2 0 3 2 338 334 
1 0 4 6 0 5 2 338 334 
1 0 2 2 0 3 2 336 335 
3 0 9 5 0 5 2 343 339 
9 0 6 6 0 5 2 343 339 
8 0 4 2 0 4 1 338 
5 0 6 6 0 6 1 339 
8 0 6 4 0 4 1 340 
6 0 2 3 0 2 1 341 
4 0 2 6 0 7 2 345 342 
3 0 2 8 0 3 5 350 349 348 346 344 
5 0 4 5 0 4 3 348 346 344 
2 0 10 4 0 7 1 347 
8 0 6 5 0 4 1 346 
10 0 9 3 0 5 1 351 
2 0 3 7 0 6 1 351 
8 0 4 4 0 7 1 351 
2 0 6 7 0 5 1 351 
4 0 6 3 0 10 1 351 
0 0 0 0 0 0 1 542 
0 0 0 0 0 0 3 353 354 382 
10 1 0 1 1 0 2 381 355 
5 1 0 7 3 0 3 381 365 356 
5 3 0 4 7 0 2 365 356 
5 7 0 4 6 0 1 357 
10 8 0 6 5 0 3 380 379 358 
3 7 0 4 9 0 1 359 
7 5 0 5 4 0 2 378 360 
5 2 0 6 6 0 3 377 376 361 
2 6 0 5 6 0 1 362 
8 4 0 5 3 0 1 363 
3 9 0 5 5 0 2 375 364 
8 3 0 7 3 0 1 366 
6 5 0 4 9 0 4 375 370 369 368 
4 5 0 8 6 0 3 373 369 367 
10 4 0 8 9 0 3 374 371 368 
3 3 0 5 4 0 1 372 
2 6 0 5 4 0 1 371 
5 7 0 5 5 0 1 373 
2 5 0 6 7 0 1 383 
2 4 0 6 5 0 1 383 
5 5 0 8 2 0 1 383 
1 6 0 2 3 0 1 383 
4 3 0 3 6 0 1 383 
5 3 0 4 4 0 1 383 
8 5 0 4 6 0 1 383 
9 9 0 5 6 0 1 383 
4 4 0 5 3 0 1 383 
1 5 0 4 4 0 1 383 
7 5 0 6 4 0 1 383 
1 10 0 3 5 0 1 383 
0 0 0 0 0 0 1 542 
0 0 0 0 0 0 3 385 386 414 
4 1 0 0 1 1 2 413 387 
2 5 0 0 10 10 3 413 394 388 
6 4 0 0 1 6 2 394 388 
8 4 0 0 4 6 1 389 
2 4 0 0 5 5 3 412 411 390 
3 5 0 0 3 3 1 391 
2 4 0 0 1 5 2 403 392 
9 5 0 0 5 3 2 409 393 
2 5 0 0 8 3 2 410 395 
1 5 0 0 4 7 3 409 408 397 
10 2 0 0 6 2 1 396 
10 9 0 0 8 4 2 408 398 
5 9 0 0 6 6 1 398 
9 4 0 0 8 7 1 399 
10 5 0 0 6 4 3 407 402 400 
5 5 0 0 3 6 3 405 404 401 
2 5 0 0 5 3 1 406 
5 6 0 0 5 7 1 405 
10 3 0 0 4 5 1 404 
5 6 0 0 6 4 1 415 
7 8 0 0 9 6 1 415 
3 9 0 0 2 7 1 415 
3 7 0 0 6 3 1 415 
7 2 0 0 5 7 1 415 
10 5 0 0 2 6 1 415 
2 5 0 0 5 3 1 415 
6 6 0 0 8 8 1 415 
8 5 0 0 6 4 1 415 
8 2 0 0 4 4 1 415 
6 5 0 0 4 5 1 415 
0 0 0 0 0 0 1 542 
0 0 0 0 0 0 4 417 418 419 422 
6 0 0 0 0 1 2 426 420 
5 0 0 0 0 4 2 426 420 
10 0 0 0 0 9 1 420 
9 0 0 0 0 8 2 424 421 
8 0 0 0 0 4 1 423 
2 0 0 0 0 4 1 423 
6 0 0 0 0 4 1 425 
6 0 0 0 0 5 1 425 
2 0 0 0 0 6 1 427 
9 0 0 0 0 5 1 427 
0 0 0 0 0 0 4 494 506 518 530 
0 0 0 0 0 0 1 429 
9 0 0 1 1 0 2 436 430 
7 0 0 2 6 0 1 431 
5 0 0 3 4 0 4 448 447 445 432 
2 0 0 4 5 0 2 446 433 
6 0 0 4 5 0 2 441 434 
7 0 0 5 6 0 4 444 443 442 435 
10 0 0 5 8 0 2 440 437 
10 0 0 2 9 0 3 445 441 439 
8 0 0 4 9 0 1 438 
3 0 0 10 1 0 1 439 
2 0 0 3 9 0 1 449 
3 0 0 4 2 0 1 449 
5 0 0 9 4 0 1 449 
5 0 0 8 6 0 1 449 
1 0 0 6 5 0 1 449 
1 0 0 6 3 0 1 449 
2 0 0 7 5 0 1 449 
8 0 0 6 6 0 1 449 
3 0 0 2 4 0 1 449 
3 0 0 9 2 0 1 449 
0 0 0 0 0 0 1 542 
0 0 0 0 0 0 4 451 452 455 458 
5 1 0 0 1 0 3 461 460 453 
9 10 0 0 4 0 5 465 461 460 459 456 
2 6 0 0 6 0 1 454 
2 1 0 0 5 0 3 465 459 456 
5 3 0 0 6 0 2 463 460 
2 9 0 0 5 0 1 457 
9 5 0 0 7 0 2 463 462 
1 5 0 0 7 0 1 459 
1 4 0 0 6 0 1 462 
6 4 0 0 7 0 1 462 
4 5 0 0 5 0 1 463 
10 5 0 0 3 0 1 464 
2 8 0 0 5 0 1 464 
6 7 0 0 3 0 3 470 469 466 
6 5 0 0 2 0 2 469 466 
6 4 0 0 9 0 1 467 
3 5 0 0 4 0 1 468 
10 5 0 0 5 0 1 471 
7 2 0 0 4 0 1 471 
5 6 0 0 6 0 1 471 
0 0 0 0 0 0 1 542 
0 0 0 0 0 0 3 473 476 479 
2 1 0 0 1 0 2 481 474 
6 3 0 0 2 0 2 488 475 
9 5 0 0 9 0 2 482 477 
1 9 0 0 7 0 4 489 487 482 481 
10 4 0 0 7 0 1 478 
8 8 0 0 6 0 3 492 487 480 
2 3 0 0 8 0 3 492 481 480 
8 6 0 0 6 0 3 491 485 483 
1 6 0 0 4 0 2 491 485 
6 5 0 0 6 0 1 483 
8 5 0 0 3 0 1 484 
8 4 0 0 5 0 1 486 
1 5 0 0 4 0 1 486 
9 5 0 0 4 0 1 490 
4 4 0 0 8 0 1 491 
5 5 0 0 5 0 1 490 
6 8 0 0 6 0 1 492 
8 5 0 0 4 0 1 493 
5 7 0 0 2 0 1 493 
2 2 0 0 3 0 1 493 
0 0 0 0 0 0 1 542 
0 0 0 0 0 0 4 495 499 500 504 
7 0 0 0 0 1 1 496 
5 0 0 0 0 9 2 503 497 
9 0 0 0 0 7 2 502 498 
4 0 0 0 0 7 1 501 
4 0 0 0 0 6 1 502 
10 0 0 0 0 4 1 501 
6 0 0 0 0 3 1 505 
10 0 0 0 0 2 1 505 
6 0 0 0 0 4 1 505 
8 0 0 0 0 7 1 505 
0 0 0 0 0 0 1 542 
0 0 0 0 0 0 3 507 510 516 
5 0 0 0 1 0 2 512 508 
6 0 0 0 5 0 1 509 
1 0 0 0 5 0 2 513 511 
2 0 0 0 5 0 1 512 
3 0 0 0 9 0 2 515 514 
3 0 0 0 9 0 2 515 514 
3 0 0 0 4 0 1 514 
7 0 0 0 3 0 1 517 
1 0 0 0 5 0 1 517 
8 0 0 0 4 0 1 517 
0 0 0 0 0 0 1 542 
0 0 0 0 0 0 2 519 521 
7 0 0 0 1 0 2 522 520 
8 0 0 0 5 0 3 525 524 523 
2 0 0 0 5 0 2 524 522 
2 0 0 0 6 0 2 528 525 
4 0 0 0 2 0 2 528 526 
3 0 0 0 6 0 2 528 527 
2 0 0 0 3 0 1 526 
8 0 0 0 6 0 1 527 
3 0 0 0 6 0 1 529 
1 0 0 0 10 0 1 529 
0 0 0 0 0 0 1 542 
0 0 0 0 0 0 4 531 533 539 540 
4 1 0 0 0 0 1 532 
6 5 0 0 0 0 3 538 537 534 
7 7 0 0 0 0 2 538 537 
1 7 0 0 0 0 1 535 
6 4 0 0 0 0 1 536 
8 5 0 0 0 0 1 541 
8 6 0 0 0 0 1 541 
4 5 0 0 0 0 1 541 
4 4 0 0 0 0 1 541 
6 6 0 0 0 0 1 541 
0 0 0 0 0 0 1 542 
0 0 0 0 0 0 0 
